[VALIDATOR STDOUT]
Checking plan: /home/fjl2401/Safety-gen/benchmark_problems/spanner/optic_results/spanner-s5-n4-l7-s5002.plan
Plan executed successfully - checking goal
Goal not satisfied
Plan invalid


Failed plans:
 /home/fjl2401/Safety-gen/benchmark_problems/spanner/optic_results/spanner-s5-n4-l7-s5002.plan
